(set-logic QF_S)
(declare-fun var0 () String)
(assert (str.in.re var0 (re.++ (re.union (re.+ (str.to.re "00")) (re.+ (str.to.re "1"))) (re.++ (re.union (re.* (str.to.re "22")) (re.* (str.to.re "33"))) (re.++ (re.* (re.+ (str.to.re "444"))) (re.++ (re.* (re.union (str.to.re "555") (str.to.re "666"))) (re.++ (re.+ (re.+ (str.to.re "7"))) (re.++ (re.union (re.union (str.to.re "888") (str.to.re "9")) (re.union (str.to.re "aa") (str.to.re "bbb"))) (re.++ (re.union (re.* (str.to.re "ccc")) (re.* (str.to.re "d"))) (re.++ (re.* (re.union (str.to.re "eee") (str.to.re "f"))) (re.++ (re.* (re.union (str.to.re "g") (str.to.re "hhh"))) (re.++ (re.+ (re.* (str.to.re "i"))) (re.++ (re.* (re.union (str.to.re "jj") (str.to.re "kk"))) (re.++ (re.union (re.+ (str.to.re "l")) (re.+ (str.to.re "m"))) (re.++ (re.+ (re.+ (str.to.re "nn"))) (re.++ (re.union (re.* (str.to.re "oo")) (re.* (str.to.re "p"))) (re.++ (re.* (re.* (str.to.re "qq"))) (re.++ (re.union (re.union (str.to.re "rrr") (str.to.re "s")) (re.union (str.to.re "ttt") (str.to.re "uuu"))) (re.++ (re.+ (re.+ (str.to.re "v"))) (re.++ (re.* (re.* (str.to.re "w"))) (re.++ (re.union (re.+ (str.to.re "xxx")) (re.+ (str.to.re "yy"))) (re.++ (re.* (re.* (str.to.re "zz"))) (re.++ (re.union (re.+ (str.to.re "AA")) (re.+ (str.to.re "BBB"))) (re.++ (re.union (re.+ (str.to.re "C")) (re.+ (str.to.re "DD"))) (re.++ (re.union (re.union (str.to.re "EEE") (str.to.re "FFF")) (re.union (str.to.re "G") (str.to.re "H"))) (re.++ (re.+ (re.* (str.to.re "I"))) (re.++ (re.union (re.union (str.to.re "J") (str.to.re "K")) (re.union (str.to.re "LL") (str.to.re "MMM"))) (re.++ (re.+ (re.+ (str.to.re "NN"))) (re.++ (re.union (re.union (str.to.re "O") (str.to.re "P")) (re.union (str.to.re "QQQ") (str.to.re "RRR"))) (re.++ (re.union (re.+ (str.to.re "S")) (re.+ (str.to.re "T"))) (re.++ (re.union (re.* (str.to.re "U")) (re.* (str.to.re "V"))) (re.++ (re.+ (re.+ (str.to.re "WW"))) (re.++ (re.+ (re.+ (str.to.re "XX"))) (re.++ (re.* (re.* (str.to.re "Y"))) (re.++ (re.+ (re.+ (str.to.re "ZZZ"))) (re.++ (re.union (re.+ (str.to.re "!")) (re.+ (str.to.re """"""""))) (re.++ (re.+ (re.+ (str.to.re "##"))) (re.++ (re.union (re.* (str.to.re "$$")) (re.* (str.to.re "%%%"))) (re.++ (re.+ (re.* (str.to.re "&"))) (re.++ (re.+ (re.* (str.to.re "'''"))) (re.++ (re.+ (re.* (str.to.re "("))) (re.++ (re.* (re.union (str.to.re "))") (str.to.re "***"))) (re.++ (re.union (re.union (str.to.re "+++") (str.to.re ",,,")) (re.union (str.to.re "---") (str.to.re ".."))) (re.++ (re.union (re.+ (str.to.re "/")) (re.+ (str.to.re "::"))) (re.++ (re.* (re.+ (str.to.re ";;;"))) (re.++ (re.union (re.* (str.to.re "<<<")) (re.* (str.to.re "==="))) (re.++ (re.+ (re.union (str.to.re ">>") (str.to.re "???"))) (re.++ (re.+ (re.* (str.to.re "@@"))) (re.++ (re.* (re.+ (str.to.re "["))) (re.++ (re.* (re.+ (str.to.re "\\"))) (re.++ (re.+ (re.+ (str.to.re "]]]"))) (re.++ (re.union (re.* (str.to.re "^^^")) (re.* (str.to.re "___"))) (re.+ (re.union (str.to.re "`") (str.to.re "{{{")))))))))))))))))))))))))))))))))))))))))))))))))))))))
(assert (not (str.in.re var0 (re.++ (re.+ (re.+ (str.to.re "0"))) (re.++ (re.* (re.+ (str.to.re "111"))) (re.++ (re.union (re.union (str.to.re "22") (str.to.re "333")) (re.union (str.to.re "4") (str.to.re "5"))) (re.++ (re.* (re.+ (str.to.re "666"))) (re.++ (re.+ (re.* (str.to.re "77"))) (re.++ (re.union (re.+ (str.to.re "8")) (re.+ (str.to.re "9"))) (re.++ (re.+ (re.+ (str.to.re "aaa"))) (re.++ (re.* (re.union (str.to.re "bb") (str.to.re "ccc"))) (re.++ (re.union (re.+ (str.to.re "dd")) (re.+ (str.to.re "ee"))) (re.++ (re.* (re.+ (str.to.re "fff"))) (re.++ (re.+ (re.+ (str.to.re "ggg"))) (re.++ (re.* (re.* (str.to.re "hhh"))) (re.++ (re.union (re.union (str.to.re "i") (str.to.re "j")) (re.union (str.to.re "kkk") (str.to.re "l"))) (re.++ (re.+ (re.+ (str.to.re "mm"))) (re.++ (re.+ (re.+ (str.to.re "nn"))) (re.++ (re.union (re.+ (str.to.re "oo")) (re.+ (str.to.re "ppp"))) (re.++ (re.+ (re.* (str.to.re "qqq"))) (re.++ (re.union (re.+ (str.to.re "r")) (re.+ (str.to.re "sss"))) (re.++ (re.union (re.union (str.to.re "ttt") (str.to.re "uuu")) (re.union (str.to.re "vv") (str.to.re "ww"))) (re.++ (re.* (re.union (str.to.re "xx") (str.to.re "y"))) (re.++ (re.* (re.union (str.to.re "zz") (str.to.re "AA"))) (re.++ (re.union (re.union (str.to.re "BB") (str.to.re "CCC")) (re.union (str.to.re "D") (str.to.re "EE"))) (re.++ (re.union (re.+ (str.to.re "FF")) (re.+ (str.to.re "G"))) (re.++ (re.+ (re.union (str.to.re "H") (str.to.re "II"))) (re.++ (re.+ (re.union (str.to.re "JJ") (str.to.re "K"))) (re.++ (re.+ (re.+ (str.to.re "LL"))) (re.++ (re.union (re.+ (str.to.re "MMM")) (re.+ (str.to.re "N"))) (re.++ (re.+ (re.union (str.to.re "OO") (str.to.re "PPP"))) (re.++ (re.* (re.union (str.to.re "QQQ") (str.to.re "RRR"))) (re.++ (re.* (re.* (str.to.re "SS"))) (re.++ (re.* (re.* (str.to.re "TT"))) (re.++ (re.+ (re.* (str.to.re "UUU"))) (re.++ (re.+ (re.* (str.to.re "VV"))) (re.++ (re.+ (re.union (str.to.re "WWW") (str.to.re "X"))) (re.++ (re.* (re.+ (str.to.re "YYY"))) (re.++ (re.+ (re.* (str.to.re "Z"))) (re.++ (re.union (re.union (str.to.re "!") (str.to.re """""")) (re.union (str.to.re "###") (str.to.re "$"))) (re.++ (re.+ (re.+ (str.to.re "%%"))) (re.++ (re.+ (re.+ (str.to.re "&&"))) (re.++ (re.* (re.+ (str.to.re "''"))) (re.++ (re.union (re.+ (str.to.re "((")) (re.+ (str.to.re ")))"))) (re.++ (re.* (re.union (str.to.re "***") (str.to.re "+++"))) (re.++ (re.* (re.* (str.to.re ",,,"))) (re.++ (re.+ (re.+ (str.to.re "-"))) (re.++ (re.+ (re.* (str.to.re ".."))) (re.++ (re.+ (re.union (str.to.re "//") (str.to.re "::"))) (re.++ (re.* (re.* (str.to.re ";;"))) (re.++ (re.* (re.union (str.to.re "<<<") (str.to.re "="))) (re.++ (re.* (re.* (str.to.re ">"))) (re.++ (re.union (re.+ (str.to.re "??")) (re.+ (str.to.re "@@"))) (re.+ (re.union (str.to.re "[[[") (str.to.re "\\\\"))))))))))))))))))))))))))))))))))))))))))))))))))))))))
(check-sat)